p cnf 705 2418
1 2 3 4 0
-1 -2 0
-1 -3 0
-1 -4 0
-2 -3 0
-2 -4 0
-3 -4 0
5 -6 -7 0
6 -5 -7 0
-5 -6 7 0
6 5 7 0
-1 -7 0
6 -5 -8 0
5 -6 -8 0
8 -6 -5 0
8 6 5 0
-2 8 0
-3 8 0
-4 8 0
9 -10 -11 0
10 -9 -11 0
-9 -10 11 0
10 9 11 0
-1 -11 0
10 -12 -13 0
12 -10 -13 0
13 -10 -12 0
13 10 12 0
-2 13 0
-9 14 0
-12 14 0
-15 14 0
-16 14 0
-17 14 0
-18 14 0
-19 14 0
20 0
10 -14 -21 0
-10 14 -21 0
-10 -14 21 0
10 14 21 0
-3 21 0
9 22 0
12 22 0
15 22 0
16 22 0
17 22 0
18 22 0
19 22 0
-23 0
-10 22 -24 0
10 -22 -24 0
24 -22 -10 0
10 22 24 0
-4 -24 0
12 -25 -26 0
25 -12 -26 0
-12 -25 26 0
12 25 26 0
-1 -26 0
25 -15 -27 0
15 -25 -27 0
27 -25 -15 0
27 25 15 0
-2 27 0
-12 28 0
-15 28 0
-16 28 0
-17 28 0
-18 28 0
-19 28 0
12 15 16 17 18 19 -28 0
25 -28 -29 0
-25 28 -29 0
-25 -28 29 0
25 28 29 0
-3 29 0
12 30 0
15 30 0
16 30 0
17 30 0
18 30 0
19 30 0
-31 0
-25 30 -32 0
25 -30 -32 0
32 -30 -25 0
25 30 32 0
-4 -32 0
15 -33 -34 0
33 -15 -34 0
-15 -33 34 0
15 33 34 0
-1 -34 0
33 -16 -35 0
16 -33 -35 0
35 -33 -16 0
35 33 16 0
-2 35 0
-15 36 0
-16 36 0
-17 36 0
-18 36 0
-19 36 0
15 16 17 18 19 -36 0
33 -36 -37 0
-33 36 -37 0
-33 -36 37 0
33 36 37 0
-3 37 0
15 38 0
16 38 0
17 38 0
18 38 0
19 38 0
-39 0
-33 38 -40 0
33 -38 -40 0
40 -38 -33 0
33 38 40 0
-4 -40 0
16 -41 -42 0
41 -16 -42 0
-16 -41 42 0
16 41 42 0
-1 -42 0
41 -17 -43 0
17 -41 -43 0
43 -41 -17 0
43 41 17 0
-2 43 0
41 -36 -44 0
36 -41 -44 0
-36 -41 44 0
41 36 44 0
-3 44 0
38 -41 -45 0
41 -38 -45 0
45 -38 -41 0
41 38 45 0
-4 -45 0
17 -46 -47 0
46 -17 -47 0
-17 -46 47 0
17 46 47 0
-1 -47 0
46 -18 -48 0
18 -46 -48 0
48 -46 -18 0
48 46 18 0
-2 48 0
46 -36 -49 0
36 -46 -49 0
-36 -46 49 0
46 36 49 0
-3 49 0
38 -46 -50 0
46 -38 -50 0
50 -38 -46 0
46 38 50 0
-4 -50 0
18 -51 -52 0
51 -18 -52 0
-18 -51 52 0
18 51 52 0
-1 -52 0
51 -19 -53 0
19 -51 -53 0
53 -51 -19 0
53 51 19 0
-2 53 0
51 -36 -54 0
36 -51 -54 0
-36 -51 54 0
51 36 54 0
-3 54 0
38 -51 -55 0
51 -38 -55 0
55 -38 -51 0
51 38 55 0
-4 -55 0
19 -56 -57 0
56 -19 -57 0
-19 -56 57 0
19 56 57 0
-1 -57 0
-15 56 -58 0
15 -56 -58 0
58 -56 -15 0
58 56 15 0
-2 58 0
56 -36 -59 0
36 -56 -59 0
-36 -56 59 0
56 36 59 0
-3 59 0
38 -56 -60 0
56 -38 -60 0
60 -38 -56 0
56 38 60 0
-4 -60 0
61 -62 -63 0
62 -61 -63 0
-61 -62 63 0
62 61 63 0
-1 -63 0
62 -64 -65 0
64 -62 -65 0
65 -62 -64 0
65 62 64 0
-2 65 0
-61 66 0
-64 66 0
-67 66 0
-68 66 0
-69 66 0
-70 66 0
-71 66 0
-72 66 0
-73 66 0
-74 66 0
-75 66 0
-76 66 0
77 0
62 -66 -78 0
-62 66 -78 0
-62 -66 78 0
62 66 78 0
-3 78 0
61 79 0
64 79 0
67 79 0
68 79 0
69 79 0
70 79 0
71 79 0
72 79 0
73 79 0
74 79 0
75 79 0
76 79 0
-80 0
-62 79 -81 0
62 -79 -81 0
81 -79 -62 0
62 79 81 0
-4 -81 0
64 -82 -83 0
82 -64 -83 0
-64 -82 83 0
64 82 83 0
-1 -83 0
82 -67 -84 0
67 -82 -84 0
84 -82 -67 0
84 82 67 0
-2 84 0
-64 85 0
-67 85 0
-68 85 0
-69 85 0
-70 85 0
-71 85 0
-72 85 0
-73 85 0
-74 85 0
-75 85 0
-76 85 0
86 0
82 -85 -87 0
-82 85 -87 0
-82 -85 87 0
82 85 87 0
-3 87 0
64 88 0
67 88 0
68 88 0
69 88 0
70 88 0
71 88 0
72 88 0
73 88 0
74 88 0
75 88 0
76 88 0
-89 0
-82 88 -90 0
82 -88 -90 0
90 -88 -82 0
82 88 90 0
-4 -90 0
67 -91 -92 0
91 -67 -92 0
-67 -91 92 0
67 91 92 0
-1 -92 0
91 -68 -93 0
68 -91 -93 0
93 -91 -68 0
93 91 68 0
-2 93 0
-67 94 0
-68 94 0
-69 94 0
-70 94 0
-71 94 0
-72 94 0
-73 94 0
-74 94 0
-75 94 0
-76 94 0
95 0
91 -94 -96 0
-91 94 -96 0
-91 -94 96 0
91 94 96 0
-3 96 0
67 97 0
68 97 0
69 97 0
70 97 0
71 97 0
72 97 0
73 97 0
74 97 0
75 97 0
76 97 0
-98 0
-91 97 -99 0
91 -97 -99 0
99 -97 -91 0
91 97 99 0
-4 -99 0
68 -100 -101 0
100 -68 -101 0
-68 -100 101 0
68 100 101 0
-1 -101 0
100 -69 -102 0
69 -100 -102 0
102 -100 -69 0
102 100 69 0
-2 102 0
-68 103 0
-69 103 0
-70 103 0
-71 103 0
-72 103 0
-73 103 0
-74 103 0
-75 103 0
-76 103 0
104 0
100 -103 -105 0
-100 103 -105 0
-100 -103 105 0
100 103 105 0
-3 105 0
68 106 0
69 106 0
70 106 0
71 106 0
72 106 0
73 106 0
74 106 0
75 106 0
76 106 0
-107 0
-100 106 -108 0
100 -106 -108 0
108 -106 -100 0
100 106 108 0
-4 -108 0
69 -109 -110 0
109 -69 -110 0
-69 -109 110 0
69 109 110 0
-1 -110 0
109 -70 -111 0
70 -109 -111 0
111 -109 -70 0
111 109 70 0
-2 111 0
-69 112 0
-70 112 0
-71 112 0
-72 112 0
-73 112 0
-74 112 0
-75 112 0
-76 112 0
113 0
109 -112 -114 0
-109 112 -114 0
-109 -112 114 0
109 112 114 0
-3 114 0
69 115 0
70 115 0
71 115 0
72 115 0
73 115 0
74 115 0
75 115 0
76 115 0
-116 0
-109 115 -117 0
109 -115 -117 0
117 -115 -109 0
109 115 117 0
-4 -117 0
70 -118 -119 0
118 -70 -119 0
-70 -118 119 0
70 118 119 0
-1 -119 0
118 -71 -120 0
71 -118 -120 0
120 -118 -71 0
120 118 71 0
-2 120 0
-70 121 0
-71 121 0
-72 121 0
-73 121 0
-74 121 0
-75 121 0
-76 121 0
122 0
118 -121 -123 0
-118 121 -123 0
-118 -121 123 0
118 121 123 0
-3 123 0
70 124 0
71 124 0
72 124 0
73 124 0
74 124 0
75 124 0
76 124 0
-125 0
-118 124 -126 0
118 -124 -126 0
126 -124 -118 0
118 124 126 0
-4 -126 0
71 -127 -128 0
127 -71 -128 0
-71 -127 128 0
71 127 128 0
-1 -128 0
127 -72 -129 0
72 -127 -129 0
129 -127 -72 0
129 127 72 0
-2 129 0
-71 130 0
-72 130 0
-73 130 0
-74 130 0
-75 130 0
-76 130 0
131 0
127 -130 -132 0
-127 130 -132 0
-127 -130 132 0
127 130 132 0
-3 132 0
71 133 0
72 133 0
73 133 0
74 133 0
75 133 0
76 133 0
-134 0
-127 133 -135 0
127 -133 -135 0
135 -133 -127 0
127 133 135 0
-4 -135 0
72 -136 -137 0
136 -72 -137 0
-72 -136 137 0
72 136 137 0
-1 -137 0
136 -73 -138 0
73 -136 -138 0
138 -136 -73 0
138 136 73 0
-2 138 0
136 -130 -139 0
130 -136 -139 0
-130 -136 139 0
136 130 139 0
-3 139 0
133 -136 -140 0
136 -133 -140 0
140 -133 -136 0
136 133 140 0
-4 -140 0
73 -141 -142 0
141 -73 -142 0
-73 -141 142 0
73 141 142 0
-1 -142 0
141 -74 -143 0
74 -141 -143 0
143 -141 -74 0
143 141 74 0
-2 143 0
141 -130 -144 0
130 -141 -144 0
-130 -141 144 0
141 130 144 0
-3 144 0
133 -141 -145 0
141 -133 -145 0
145 -133 -141 0
141 133 145 0
-4 -145 0
74 -146 -147 0
146 -74 -147 0
-74 -146 147 0
74 146 147 0
-1 -147 0
146 -75 -148 0
75 -146 -148 0
148 -146 -75 0
148 146 75 0
-2 148 0
146 -130 -149 0
130 -146 -149 0
-130 -146 149 0
146 130 149 0
-3 149 0
133 -146 -150 0
146 -133 -150 0
150 -133 -146 0
146 133 150 0
-4 -150 0
75 -151 -152 0
151 -75 -152 0
-75 -151 152 0
75 151 152 0
-1 -152 0
151 -76 -153 0
76 -151 -153 0
153 -151 -76 0
153 151 76 0
-2 153 0
151 -130 -154 0
130 -151 -154 0
-130 -151 154 0
151 130 154 0
-3 154 0
133 -151 -155 0
151 -133 -155 0
155 -133 -151 0
151 133 155 0
-4 -155 0
76 -156 -157 0
156 -76 -157 0
-76 -156 157 0
76 156 157 0
-1 -157 0
-71 156 -158 0
71 -156 -158 0
158 -156 -71 0
158 156 71 0
-2 158 0
156 -130 -159 0
130 -156 -159 0
-130 -156 159 0
156 130 159 0
-3 159 0
133 -156 -160 0
156 -133 -160 0
160 -133 -156 0
156 133 160 0
-4 -160 0
161 -162 -163 0
162 -161 -163 0
-161 -162 163 0
162 161 163 0
-1 -163 0
162 -164 -165 0
164 -162 -165 0
165 -162 -164 0
165 162 164 0
-2 165 0
-161 166 0
-164 166 0
-167 166 0
-168 166 0
-169 166 0
-170 166 0
-171 166 0
-172 166 0
-173 166 0
-174 166 0
-175 166 0
176 0
162 -166 -177 0
-162 166 -177 0
-162 -166 177 0
162 166 177 0
-3 177 0
161 178 0
164 178 0
167 178 0
168 178 0
169 178 0
170 178 0
171 178 0
172 178 0
173 178 0
174 178 0
175 178 0
-179 0
-162 178 -180 0
162 -178 -180 0
180 -178 -162 0
162 178 180 0
-4 -180 0
164 -181 -182 0
181 -164 -182 0
-164 -181 182 0
164 181 182 0
-1 -182 0
181 -167 -183 0
167 -181 -183 0
183 -181 -167 0
183 181 167 0
-2 183 0
-164 184 0
-167 184 0
-168 184 0
-169 184 0
-170 184 0
-171 184 0
-172 184 0
-173 184 0
-174 184 0
-175 184 0
185 0
181 -184 -186 0
-181 184 -186 0
-181 -184 186 0
181 184 186 0
-3 186 0
164 187 0
167 187 0
168 187 0
169 187 0
170 187 0
171 187 0
172 187 0
173 187 0
174 187 0
175 187 0
-188 0
-181 187 -189 0
181 -187 -189 0
189 -187 -181 0
181 187 189 0
-4 -189 0
167 -190 -191 0
190 -167 -191 0
-167 -190 191 0
167 190 191 0
-1 -191 0
190 -168 -192 0
168 -190 -192 0
192 -190 -168 0
192 190 168 0
-2 192 0
-167 193 0
-168 193 0
-169 193 0
-170 193 0
-171 193 0
-172 193 0
-173 193 0
-174 193 0
-175 193 0
194 0
190 -193 -195 0
-190 193 -195 0
-190 -193 195 0
190 193 195 0
-3 195 0
167 196 0
168 196 0
169 196 0
170 196 0
171 196 0
172 196 0
173 196 0
174 196 0
175 196 0
-197 0
-190 196 -198 0
190 -196 -198 0
198 -196 -190 0
190 196 198 0
-4 -198 0
168 -199 -200 0
199 -168 -200 0
-168 -199 200 0
168 199 200 0
-1 -200 0
199 -169 -201 0
169 -199 -201 0
201 -199 -169 0
201 199 169 0
-2 201 0
-168 202 0
-169 202 0
-170 202 0
-171 202 0
-172 202 0
-173 202 0
-174 202 0
-175 202 0
203 0
199 -202 -204 0
-199 202 -204 0
-199 -202 204 0
199 202 204 0
-3 204 0
168 205 0
169 205 0
170 205 0
171 205 0
172 205 0
173 205 0
174 205 0
175 205 0
-206 0
-199 205 -207 0
199 -205 -207 0
207 -205 -199 0
199 205 207 0
-4 -207 0
169 -208 -209 0
208 -169 -209 0
-169 -208 209 0
169 208 209 0
-1 -209 0
208 -170 -210 0
170 -208 -210 0
210 -208 -170 0
210 208 170 0
-2 210 0
-169 211 0
-170 211 0
-171 211 0
-172 211 0
-173 211 0
-174 211 0
-175 211 0
212 0
208 -211 -213 0
-208 211 -213 0
-208 -211 213 0
208 211 213 0
-3 213 0
169 214 0
170 214 0
171 214 0
172 214 0
173 214 0
174 214 0
175 214 0
-215 0
-208 214 -216 0
208 -214 -216 0
216 -214 -208 0
208 214 216 0
-4 -216 0
170 -217 -218 0
217 -170 -218 0
-170 -217 218 0
170 217 218 0
-1 -218 0
217 -171 -219 0
171 -217 -219 0
219 -217 -171 0
219 217 171 0
-2 219 0
-170 220 0
-171 220 0
-172 220 0
-173 220 0
-174 220 0
-175 220 0
221 0
217 -220 -222 0
-217 220 -222 0
-217 -220 222 0
217 220 222 0
-3 222 0
170 223 0
171 223 0
172 223 0
173 223 0
174 223 0
175 223 0
-224 0
-217 223 -225 0
217 -223 -225 0
225 -223 -217 0
217 223 225 0
-4 -225 0
171 -226 -227 0
226 -171 -227 0
-171 -226 227 0
171 226 227 0
-1 -227 0
226 -172 -228 0
172 -226 -228 0
228 -226 -172 0
228 226 172 0
-2 228 0
-171 229 0
-172 229 0
-173 229 0
-174 229 0
-175 229 0
171 172 173 174 175 -229 0
226 -229 -230 0
-226 229 -230 0
-226 -229 230 0
226 229 230 0
-3 230 0
171 231 0
172 231 0
173 231 0
174 231 0
175 231 0
-232 0
-226 231 -233 0
226 -231 -233 0
233 -231 -226 0
226 231 233 0
-4 -233 0
172 -234 -235 0
234 -172 -235 0
-172 -234 235 0
172 234 235 0
-1 -235 0
234 -173 -236 0
173 -234 -236 0
236 -234 -173 0
236 234 173 0
-2 236 0
234 -229 -237 0
229 -234 -237 0
-229 -234 237 0
234 229 237 0
-3 237 0
231 -234 -238 0
234 -231 -238 0
238 -231 -234 0
234 231 238 0
-4 -238 0
173 -239 -240 0
239 -173 -240 0
-173 -239 240 0
173 239 240 0
-1 -240 0
239 -174 -241 0
174 -239 -241 0
241 -239 -174 0
241 239 174 0
-2 241 0
239 -229 -242 0
229 -239 -242 0
-229 -239 242 0
239 229 242 0
-3 242 0
231 -239 -243 0
239 -231 -243 0
243 -231 -239 0
239 231 243 0
-4 -243 0
174 -244 -245 0
244 -174 -245 0
-174 -244 245 0
174 244 245 0
-1 -245 0
244 -175 -246 0
175 -244 -246 0
246 -244 -175 0
246 244 175 0
-2 246 0
244 -229 -247 0
229 -244 -247 0
-229 -244 247 0
244 229 247 0
-3 247 0
231 -244 -248 0
244 -231 -248 0
248 -231 -244 0
244 231 248 0
-4 -248 0
175 -249 -250 0
249 -175 -250 0
-175 -249 250 0
175 249 250 0
-1 -250 0
-171 249 -251 0
171 -249 -251 0
251 -249 -171 0
251 249 171 0
-2 251 0
249 -229 -252 0
229 -249 -252 0
-229 -249 252 0
249 229 252 0
-3 252 0
231 -249 -253 0
249 -231 -253 0
253 -231 -249 0
249 231 253 0
-4 -253 0
254 -255 -256 0
255 -254 -256 0
-254 -255 256 0
255 254 256 0
-1 -256 0
-9 255 -257 0
9 -255 -257 0
257 -255 -9 0
257 255 9 0
-2 257 0
-9 258 0
-12 258 0
-15 258 0
-16 258 0
-17 258 0
-18 258 0
-19 258 0
-254 258 0
259 0
255 -258 -260 0
-255 258 -260 0
-255 -258 260 0
255 258 260 0
-3 260 0
9 261 0
12 261 0
15 261 0
16 261 0
17 261 0
18 261 0
19 261 0
254 261 0
-262 0
-255 261 -263 0
255 -261 -263 0
263 -261 -255 0
255 261 263 0
-4 -263 0
264 -265 -266 0
265 -264 -266 0
-264 -265 266 0
265 264 266 0
-1 -266 0
265 -267 -268 0
267 -265 -268 0
268 -265 -267 0
268 265 267 0
-2 268 0
-15 269 0
-16 269 0
-17 269 0
-18 269 0
-19 269 0
-264 269 0
-267 269 0
-270 269 0
-271 269 0
272 0
265 -269 -273 0
-265 269 -273 0
-265 -269 273 0
265 269 273 0
-3 273 0
15 274 0
16 274 0
17 274 0
18 274 0
19 274 0
264 274 0
267 274 0
270 274 0
271 274 0
-275 0
-265 274 -276 0
265 -274 -276 0
276 -274 -265 0
265 274 276 0
-4 -276 0
267 -277 -278 0
277 -267 -278 0
-267 -277 278 0
267 277 278 0
-1 -278 0
277 -270 -279 0
270 -277 -279 0
279 -277 -270 0
279 277 270 0
-2 279 0
-15 280 0
-16 280 0
-17 280 0
-18 280 0
-19 280 0
-267 280 0
-270 280 0
-271 280 0
281 0
277 -280 -282 0
-277 280 -282 0
-277 -280 282 0
277 280 282 0
-3 282 0
15 283 0
16 283 0
17 283 0
18 283 0
19 283 0
267 283 0
270 283 0
271 283 0
-284 0
-277 283 -285 0
277 -283 -285 0
285 -283 -277 0
277 283 285 0
-4 -285 0
270 -286 -287 0
286 -270 -287 0
-270 -286 287 0
270 286 287 0
-1 -287 0
286 -271 -288 0
271 -286 -288 0
288 -286 -271 0
288 286 271 0
-2 288 0
-15 289 0
-16 289 0
-17 289 0
-18 289 0
-19 289 0
-270 289 0
-271 289 0
290 0
286 -289 -291 0
-286 289 -291 0
-286 -289 291 0
286 289 291 0
-3 291 0
15 292 0
16 292 0
17 292 0
18 292 0
19 292 0
270 292 0
271 292 0
-293 0
-286 292 -294 0
286 -292 -294 0
294 -292 -286 0
286 292 294 0
-4 -294 0
271 -295 -296 0
295 -271 -296 0
-271 -295 296 0
271 295 296 0
-1 -296 0
-18 295 -297 0
18 -295 -297 0
297 -295 -18 0
297 295 18 0
-2 297 0
-15 298 0
-16 298 0
-17 298 0
-18 298 0
-19 298 0
-271 298 0
15 16 17 18 19 271 -298 0
295 -298 -299 0
-295 298 -299 0
-295 -298 299 0
295 298 299 0
-3 299 0
15 300 0
16 300 0
17 300 0
18 300 0
19 300 0
271 300 0
-301 0
-295 300 -302 0
295 -300 -302 0
302 -300 -295 0
295 300 302 0
-4 -302 0
303 -304 -305 0
304 -303 -305 0
-303 -304 305 0
304 303 305 0
-1 -305 0
304 -306 -307 0
306 -304 -307 0
307 -304 -306 0
307 304 306 0
-2 307 0
-303 308 0
-306 308 0
-309 308 0
-310 308 0
-311 308 0
-312 308 0
313 0
304 -308 -314 0
-304 308 -314 0
-304 -308 314 0
304 308 314 0
-3 314 0
303 315 0
306 315 0
309 315 0
310 315 0
311 315 0
312 315 0
-316 0
-304 315 -317 0
304 -315 -317 0
317 -315 -304 0
304 315 317 0
-4 -317 0
306 -318 -319 0
318 -306 -319 0
-306 -318 319 0
306 318 319 0
-1 -319 0
318 -309 -320 0
309 -318 -320 0
320 -318 -309 0
320 318 309 0
-2 320 0
-306 321 0
-309 321 0
-310 321 0
-311 321 0
-312 321 0
306 309 310 311 312 -321 0
318 -321 -322 0
-318 321 -322 0
-318 -321 322 0
318 321 322 0
-3 322 0
306 323 0
309 323 0
310 323 0
311 323 0
312 323 0
-324 0
-318 323 -325 0
318 -323 -325 0
325 -323 -318 0
318 323 325 0
-4 -325 0
309 -326 -327 0
326 -309 -327 0
-309 -326 327 0
309 326 327 0
-1 -327 0
326 -310 -328 0
310 -326 -328 0
328 -326 -310 0
328 326 310 0
-2 328 0
326 -321 -329 0
321 -326 -329 0
-321 -326 329 0
326 321 329 0
-3 329 0
323 -326 -330 0
326 -323 -330 0
330 -323 -326 0
326 323 330 0
-4 -330 0
310 -331 -332 0
331 -310 -332 0
-310 -331 332 0
310 331 332 0
-1 -332 0
331 -311 -333 0
311 -331 -333 0
333 -331 -311 0
333 331 311 0
-2 333 0
331 -321 -334 0
321 -331 -334 0
-321 -331 334 0
331 321 334 0
-3 334 0
323 -331 -335 0
331 -323 -335 0
335 -323 -331 0
331 323 335 0
-4 -335 0
311 -336 -337 0
336 -311 -337 0
-311 -336 337 0
311 336 337 0
-1 -337 0
336 -312 -338 0
312 -336 -338 0
338 -336 -312 0
338 336 312 0
-2 338 0
336 -321 -339 0
321 -336 -339 0
-321 -336 339 0
336 321 339 0
-3 339 0
323 -336 -340 0
336 -323 -340 0
340 -323 -336 0
336 323 340 0
-4 -340 0
312 -341 -342 0
341 -312 -342 0
-312 -341 342 0
312 341 342 0
-1 -342 0
-306 341 -343 0
306 -341 -343 0
343 -341 -306 0
343 341 306 0
-2 343 0
341 -321 -344 0
321 -341 -344 0
-321 -341 344 0
341 321 344 0
-3 344 0
323 -341 -345 0
341 -323 -345 0
345 -323 -341 0
341 323 345 0
-4 -345 0
346 -347 -348 0
347 -346 -348 0
-346 -347 348 0
347 346 348 0
-1 -348 0
347 -349 -350 0
349 -347 -350 0
350 -347 -349 0
350 347 349 0
-2 350 0
-346 351 0
-349 351 0
-352 351 0
-353 351 0
-354 351 0
-355 351 0
-356 351 0
357 0
347 -351 -358 0
-347 351 -358 0
-347 -351 358 0
347 351 358 0
-3 358 0
346 359 0
349 359 0
352 359 0
353 359 0
354 359 0
355 359 0
356 359 0
-360 0
-347 359 -361 0
347 -359 -361 0
361 -359 -347 0
347 359 361 0
-4 -361 0
349 -362 -363 0
362 -349 -363 0
-349 -362 363 0
349 362 363 0
-1 -363 0
362 -352 -364 0
352 -362 -364 0
364 -362 -352 0
364 362 352 0
-2 364 0
-349 365 0
-352 365 0
-353 365 0
-354 365 0
-355 365 0
-356 365 0
366 0
362 -365 -367 0
-362 365 -367 0
-362 -365 367 0
362 365 367 0
-3 367 0
349 368 0
352 368 0
353 368 0
354 368 0
355 368 0
356 368 0
-369 0
-362 368 -370 0
362 -368 -370 0
370 -368 -362 0
362 368 370 0
-4 -370 0
352 -371 -372 0
371 -352 -372 0
-352 -371 372 0
352 371 372 0
-1 -372 0
371 -353 -373 0
353 -371 -373 0
373 -371 -353 0
373 371 353 0
-2 373 0
-352 374 0
-353 374 0
-354 374 0
-355 374 0
-356 374 0
352 353 354 355 356 -374 0
371 -374 -375 0
-371 374 -375 0
-371 -374 375 0
371 374 375 0
-3 375 0
352 376 0
353 376 0
354 376 0
355 376 0
356 376 0
-377 0
-371 376 -378 0
371 -376 -378 0
378 -376 -371 0
371 376 378 0
-4 -378 0
353 -379 -380 0
379 -353 -380 0
-353 -379 380 0
353 379 380 0
-1 -380 0
379 -354 -381 0
354 -379 -381 0
381 -379 -354 0
381 379 354 0
-2 381 0
-353 382 0
-354 382 0
-355 382 0
-356 382 0
353 354 355 356 -382 0
379 -382 -383 0
-379 382 -383 0
-379 -382 383 0
379 382 383 0
-3 383 0
353 384 0
354 384 0
355 384 0
356 384 0
-385 0
-379 384 -386 0
379 -384 -386 0
386 -384 -379 0
379 384 386 0
-4 -386 0
354 -387 -388 0
387 -354 -388 0
-354 -387 388 0
354 387 388 0
-1 -388 0
387 -355 -389 0
355 -387 -389 0
389 -387 -355 0
389 387 355 0
-2 389 0
387 -382 -390 0
382 -387 -390 0
-382 -387 390 0
387 382 390 0
-3 390 0
384 -387 -391 0
387 -384 -391 0
391 -384 -387 0
387 384 391 0
-4 -391 0
355 -392 -393 0
392 -355 -393 0
-355 -392 393 0
355 392 393 0
-1 -393 0
392 -356 -394 0
356 -392 -394 0
394 -392 -356 0
394 392 356 0
-2 394 0
392 -382 -395 0
382 -392 -395 0
-382 -392 395 0
392 382 395 0
-3 395 0
384 -392 -396 0
392 -384 -396 0
396 -384 -392 0
392 384 396 0
-4 -396 0
356 -397 -398 0
397 -356 -398 0
-356 -397 398 0
356 397 398 0
-1 -398 0
-353 397 -399 0
353 -397 -399 0
399 -397 -353 0
399 397 353 0
-2 399 0
397 -382 -400 0
382 -397 -400 0
-382 -397 400 0
397 382 400 0
-3 400 0
384 -397 -401 0
397 -384 -401 0
401 -384 -397 0
397 384 401 0
-4 -401 0
402 -403 -404 0
403 -402 -404 0
-402 -403 404 0
403 402 404 0
-1 -404 0
403 -405 -406 0
405 -403 -406 0
406 -403 -405 0
406 403 405 0
-2 406 0
-353 407 0
-354 407 0
-355 407 0
-356 407 0
-402 407 0
-405 407 0
-408 407 0
409 0
403 -407 -410 0
-403 407 -410 0
-403 -407 410 0
403 407 410 0
-3 410 0
353 411 0
354 411 0
355 411 0
356 411 0
402 411 0
405 411 0
408 411 0
-412 0
-403 411 -413 0
403 -411 -413 0
413 -411 -403 0
403 411 413 0
-4 -413 0
405 -414 -415 0
414 -405 -415 0
-405 -414 415 0
405 414 415 0
-1 -415 0
414 -408 -416 0
408 -414 -416 0
416 -414 -408 0
416 414 408 0
-2 416 0
-353 417 0
-354 417 0
-355 417 0
-356 417 0
-405 417 0
-408 417 0
418 0
414 -417 -419 0
-414 417 -419 0
-414 -417 419 0
414 417 419 0
-3 419 0
353 420 0
354 420 0
355 420 0
356 420 0
405 420 0
408 420 0
-421 0
-414 420 -422 0
414 -420 -422 0
422 -420 -414 0
414 420 422 0
-4 -422 0
408 -423 -424 0
423 -408 -424 0
-408 -423 424 0
408 423 424 0
-1 -424 0
-354 423 -425 0
354 -423 -425 0
425 -423 -354 0
425 423 354 0
-2 425 0
-353 426 0
-354 426 0
-355 426 0
-356 426 0
-408 426 0
353 354 355 356 408 -426 0
423 -426 -427 0
-423 426 -427 0
-423 -426 427 0
423 426 427 0
-3 427 0
353 428 0
354 428 0
355 428 0
356 428 0
408 428 0
-429 0
-423 428 -430 0
423 -428 -430 0
430 -428 -423 0
423 428 430 0
-4 -430 0
431 -432 -433 0
432 -431 -433 0
-431 -432 433 0
432 431 433 0
-1 -433 0
432 -434 -435 0
434 -432 -435 0
435 -432 -434 0
435 432 434 0
-2 435 0
-353 436 0
-354 436 0
-355 436 0
-356 436 0
-431 436 0
-434 436 0
-437 436 0
-438 436 0
-439 436 0
440 0
432 -436 -441 0
-432 436 -441 0
-432 -436 441 0
432 436 441 0
-3 441 0
353 442 0
354 442 0
355 442 0
356 442 0
431 442 0
434 442 0
437 442 0
438 442 0
439 442 0
-443 0
-432 442 -444 0
432 -442 -444 0
444 -442 -432 0
432 442 444 0
-4 -444 0
434 -445 -446 0
445 -434 -446 0
-434 -445 446 0
434 445 446 0
-1 -446 0
445 -437 -447 0
437 -445 -447 0
447 -445 -437 0
447 445 437 0
-2 447 0
-353 448 0
-354 448 0
-355 448 0
-356 448 0
-434 448 0
-437 448 0
-438 448 0
-439 448 0
449 0
445 -448 -450 0
-445 448 -450 0
-445 -448 450 0
445 448 450 0
-3 450 0
353 451 0
354 451 0
355 451 0
356 451 0
434 451 0
437 451 0
438 451 0
439 451 0
-452 0
-445 451 -453 0
445 -451 -453 0
453 -451 -445 0
445 451 453 0
-4 -453 0
437 -454 -455 0
454 -437 -455 0
-437 -454 455 0
437 454 455 0
-1 -455 0
454 -438 -456 0
438 -454 -456 0
456 -454 -438 0
456 454 438 0
-2 456 0
-353 457 0
-354 457 0
-355 457 0
-356 457 0
-437 457 0
-438 457 0
-439 457 0
458 0
454 -457 -459 0
-454 457 -459 0
-454 -457 459 0
454 457 459 0
-3 459 0
353 460 0
354 460 0
355 460 0
356 460 0
437 460 0
438 460 0
439 460 0
-461 0
-454 460 -462 0
454 -460 -462 0
462 -460 -454 0
454 460 462 0
-4 -462 0
438 -463 -464 0
463 -438 -464 0
-438 -463 464 0
438 463 464 0
-1 -464 0
463 -439 -465 0
439 -463 -465 0
465 -463 -439 0
465 463 439 0
-2 465 0
-353 466 0
-354 466 0
-355 466 0
-356 466 0
-438 466 0
-439 466 0
467 0
463 -466 -468 0
-463 466 -468 0
-463 -466 468 0
463 466 468 0
-3 468 0
353 469 0
354 469 0
355 469 0
356 469 0
438 469 0
439 469 0
-470 0
-463 469 -471 0
463 -469 -471 0
471 -469 -463 0
463 469 471 0
-4 -471 0
439 -472 -473 0
472 -439 -473 0
-439 -472 473 0
439 472 473 0
-1 -473 0
-355 472 -474 0
355 -472 -474 0
474 -472 -355 0
474 472 355 0
-2 474 0
-353 475 0
-354 475 0
-355 475 0
-356 475 0
-439 475 0
353 354 355 356 439 -475 0
472 -475 -476 0
-472 475 -476 0
-472 -475 476 0
472 475 476 0
-3 476 0
353 477 0
354 477 0
355 477 0
356 477 0
439 477 0
-478 0
-472 477 -479 0
472 -477 -479 0
479 -477 -472 0
472 477 479 0
-4 -479 0
480 -481 -482 0
481 -480 -482 0
-480 -481 482 0
481 480 482 0
-1 -482 0
481 -483 -484 0
483 -481 -484 0
484 -481 -483 0
484 481 483 0
-2 484 0
-480 485 0
-483 485 0
-486 485 0
-487 485 0
-488 485 0
-489 485 0
-490 485 0
-491 485 0
-492 485 0
-493 485 0
-494 485 0
495 0
481 -485 -496 0
-481 485 -496 0
-481 -485 496 0
481 485 496 0
-3 496 0
480 497 0
483 497 0
486 497 0
487 497 0
488 497 0
489 497 0
490 497 0
491 497 0
492 497 0
493 497 0
494 497 0
-498 0
-481 497 -499 0
481 -497 -499 0
499 -497 -481 0
481 497 499 0
-4 -499 0
483 -500 -501 0
500 -483 -501 0
-483 -500 501 0
483 500 501 0
-1 -501 0
500 -486 -502 0
486 -500 -502 0
502 -500 -486 0
502 500 486 0
-2 502 0
-483 503 0
-486 503 0
-487 503 0
-488 503 0
-489 503 0
-490 503 0
-491 503 0
-492 503 0
-493 503 0
-494 503 0
504 0
500 -503 -505 0
-500 503 -505 0
-500 -503 505 0
500 503 505 0
-3 505 0
483 506 0
486 506 0
487 506 0
488 506 0
489 506 0
490 506 0
491 506 0
492 506 0
493 506 0
494 506 0
-507 0
-500 506 -508 0
500 -506 -508 0
508 -506 -500 0
500 506 508 0
-4 -508 0
486 -509 -510 0
509 -486 -510 0
-486 -509 510 0
486 509 510 0
-1 -510 0
509 -487 -511 0
487 -509 -511 0
511 -509 -487 0
511 509 487 0
-2 511 0
-486 512 0
-487 512 0
-488 512 0
-489 512 0
-490 512 0
-491 512 0
-492 512 0
-493 512 0
-494 512 0
513 0
509 -512 -514 0
-509 512 -514 0
-509 -512 514 0
509 512 514 0
-3 514 0
486 515 0
487 515 0
488 515 0
489 515 0
490 515 0
491 515 0
492 515 0
493 515 0
494 515 0
-516 0
-509 515 -517 0
509 -515 -517 0
517 -515 -509 0
509 515 517 0
-4 -517 0
487 -518 -519 0
518 -487 -519 0
-487 -518 519 0
487 518 519 0
-1 -519 0
518 -488 -520 0
488 -518 -520 0
520 -518 -488 0
520 518 488 0
-2 520 0
-487 521 0
-488 521 0
-489 521 0
-490 521 0
-491 521 0
-492 521 0
-493 521 0
-494 521 0
522 0
518 -521 -523 0
-518 521 -523 0
-518 -521 523 0
518 521 523 0
-3 523 0
487 524 0
488 524 0
489 524 0
490 524 0
491 524 0
492 524 0
493 524 0
494 524 0
-525 0
-518 524 -526 0
518 -524 -526 0
526 -524 -518 0
518 524 526 0
-4 -526 0
488 -527 -528 0
527 -488 -528 0
-488 -527 528 0
488 527 528 0
-1 -528 0
527 -489 -529 0
489 -527 -529 0
529 -527 -489 0
529 527 489 0
-2 529 0
-488 530 0
-489 530 0
-490 530 0
-491 530 0
-492 530 0
-493 530 0
-494 530 0
531 0
527 -530 -532 0
-527 530 -532 0
-527 -530 532 0
527 530 532 0
-3 532 0
488 533 0
489 533 0
490 533 0
491 533 0
492 533 0
493 533 0
494 533 0
-534 0
-527 533 -535 0
527 -533 -535 0
535 -533 -527 0
527 533 535 0
-4 -535 0
489 -536 -537 0
536 -489 -537 0
-489 -536 537 0
489 536 537 0
-1 -537 0
536 -490 -538 0
490 -536 -538 0
538 -536 -490 0
538 536 490 0
-2 538 0
-489 539 0
-490 539 0
-491 539 0
-492 539 0
-493 539 0
-494 539 0
540 0
536 -539 -541 0
-536 539 -541 0
-536 -539 541 0
536 539 541 0
-3 541 0
489 542 0
490 542 0
491 542 0
492 542 0
493 542 0
494 542 0
-543 0
-536 542 -544 0
536 -542 -544 0
544 -542 -536 0
536 542 544 0
-4 -544 0
490 -545 -546 0
545 -490 -546 0
-490 -545 546 0
490 545 546 0
-1 -546 0
545 -491 -547 0
491 -545 -547 0
547 -545 -491 0
547 545 491 0
-2 547 0
545 -539 -548 0
539 -545 -548 0
-539 -545 548 0
545 539 548 0
-3 548 0
542 -545 -549 0
545 -542 -549 0
549 -542 -545 0
545 542 549 0
-4 -549 0
491 -550 -551 0
550 -491 -551 0
-491 -550 551 0
491 550 551 0
-1 -551 0
550 -492 -552 0
492 -550 -552 0
552 -550 -492 0
552 550 492 0
-2 552 0
550 -539 -553 0
539 -550 -553 0
-539 -550 553 0
550 539 553 0
-3 553 0
542 -550 -554 0
550 -542 -554 0
554 -542 -550 0
550 542 554 0
-4 -554 0
492 -555 -556 0
555 -492 -556 0
-492 -555 556 0
492 555 556 0
-1 -556 0
555 -493 -557 0
493 -555 -557 0
557 -555 -493 0
557 555 493 0
-2 557 0
555 -539 -558 0
539 -555 -558 0
-539 -555 558 0
555 539 558 0
-3 558 0
542 -555 -559 0
555 -542 -559 0
559 -542 -555 0
555 542 559 0
-4 -559 0
493 -560 -561 0
560 -493 -561 0
-493 -560 561 0
493 560 561 0
-1 -561 0
560 -494 -562 0
494 -560 -562 0
562 -560 -494 0
562 560 494 0
-2 562 0
560 -539 -563 0
539 -560 -563 0
-539 -560 563 0
560 539 563 0
-3 563 0
542 -560 -564 0
560 -542 -564 0
564 -542 -560 0
560 542 564 0
-4 -564 0
494 -565 -566 0
565 -494 -566 0
-494 -565 566 0
494 565 566 0
-1 -566 0
-489 565 -567 0
489 -565 -567 0
567 -565 -489 0
567 565 489 0
-2 567 0
565 -539 -568 0
539 -565 -568 0
-539 -565 568 0
565 539 568 0
-3 568 0
542 -565 -569 0
565 -542 -569 0
569 -542 -565 0
565 542 569 0
-4 -569 0
-5 570 -571 0
5 -570 -571 0
-5 -570 571 0
5 570 571 0
-571 0
-9 572 -573 0
9 -572 -573 0
-9 -572 573 0
9 572 573 0
-573 0
-12 574 -575 0
12 -574 -575 0
-12 -574 575 0
12 574 575 0
-575 0
-15 576 -577 0
15 -576 -577 0
-15 -576 577 0
15 576 577 0
-577 0
-16 578 -579 0
16 -578 -579 0
-16 -578 579 0
16 578 579 0
-579 0
-17 580 -581 0
17 -580 -581 0
-17 -580 581 0
17 580 581 0
-581 0
-18 582 -583 0
18 -582 -583 0
-18 -582 583 0
18 582 583 0
-583 0
-19 584 -585 0
19 -584 -585 0
-19 -584 585 0
19 584 585 0
-585 0
-61 586 -587 0
61 -586 -587 0
-61 -586 587 0
61 586 587 0
-587 0
-64 588 -589 0
64 -588 -589 0
-64 -588 589 0
64 588 589 0
-589 0
-67 590 -591 0
67 -590 -591 0
-67 -590 591 0
67 590 591 0
-591 0
-68 592 -593 0
68 -592 -593 0
-68 -592 593 0
68 592 593 0
-593 0
-69 594 -595 0
69 -594 -595 0
-69 -594 595 0
69 594 595 0
-595 0
-70 596 -597 0
70 -596 -597 0
-70 -596 597 0
70 596 597 0
-597 0
-71 598 -599 0
71 -598 -599 0
-71 -598 599 0
71 598 599 0
-599 0
-72 600 -601 0
72 -600 -601 0
-72 -600 601 0
72 600 601 0
-601 0
-73 602 -603 0
73 -602 -603 0
-73 -602 603 0
73 602 603 0
-603 0
-74 604 -605 0
74 -604 -605 0
-74 -604 605 0
74 604 605 0
-605 0
-75 606 -607 0
75 -606 -607 0
-75 -606 607 0
75 606 607 0
-607 0
-76 608 -609 0
76 -608 -609 0
-76 -608 609 0
76 608 609 0
-609 0
-161 610 -611 0
161 -610 -611 0
-161 -610 611 0
161 610 611 0
-611 0
-164 612 -613 0
164 -612 -613 0
-164 -612 613 0
164 612 613 0
-613 0
-167 614 -615 0
167 -614 -615 0
-167 -614 615 0
167 614 615 0
-615 0
-168 616 -617 0
168 -616 -617 0
-168 -616 617 0
168 616 617 0
-617 0
-169 618 -619 0
169 -618 -619 0
-169 -618 619 0
169 618 619 0
-619 0
-170 620 -621 0
170 -620 -621 0
-170 -620 621 0
170 620 621 0
-621 0
-171 622 -623 0
171 -622 -623 0
-171 -622 623 0
171 622 623 0
-623 0
-172 624 -625 0
172 -624 -625 0
-172 -624 625 0
172 624 625 0
-625 0
-173 626 -627 0
173 -626 -627 0
-173 -626 627 0
173 626 627 0
-627 0
-174 628 -629 0
174 -628 -629 0
-174 -628 629 0
174 628 629 0
-629 0
-175 630 -631 0
175 -630 -631 0
-175 -630 631 0
175 630 631 0
-631 0
-254 632 -633 0
254 -632 -633 0
-254 -632 633 0
254 632 633 0
-633 0
-264 634 -635 0
264 -634 -635 0
-264 -634 635 0
264 634 635 0
-635 0
-267 636 -637 0
267 -636 -637 0
-267 -636 637 0
267 636 637 0
-637 0
-270 638 -639 0
270 -638 -639 0
-270 -638 639 0
270 638 639 0
-639 0
-271 640 -641 0
271 -640 -641 0
-271 -640 641 0
271 640 641 0
-641 0
-303 642 -643 0
303 -642 -643 0
-303 -642 643 0
303 642 643 0
-643 0
-306 644 -645 0
306 -644 -645 0
-306 -644 645 0
306 644 645 0
-645 0
-309 646 -647 0
309 -646 -647 0
-309 -646 647 0
309 646 647 0
-647 0
-310 648 -649 0
310 -648 -649 0
-310 -648 649 0
310 648 649 0
-649 0
-311 650 -651 0
311 -650 -651 0
-311 -650 651 0
311 650 651 0
-651 0
-312 652 -653 0
312 -652 -653 0
-312 -652 653 0
312 652 653 0
-653 0
-346 654 -655 0
346 -654 -655 0
-346 -654 655 0
346 654 655 0
-655 0
-349 656 -657 0
349 -656 -657 0
-349 -656 657 0
349 656 657 0
-657 0
-352 658 -659 0
352 -658 -659 0
-352 -658 659 0
352 658 659 0
-659 0
-353 660 -661 0
353 -660 -661 0
-353 -660 661 0
353 660 661 0
-661 0
-354 662 -663 0
354 -662 -663 0
-354 -662 663 0
354 662 663 0
-663 0
-355 664 -665 0
355 -664 -665 0
-355 -664 665 0
355 664 665 0
-665 0
-356 666 -667 0
356 -666 -667 0
-356 -666 667 0
356 666 667 0
-667 0
-402 668 -669 0
402 -668 -669 0
-402 -668 669 0
402 668 669 0
-669 0
-405 670 -671 0
405 -670 -671 0
-405 -670 671 0
405 670 671 0
-671 0
-408 672 -673 0
408 -672 -673 0
-408 -672 673 0
408 672 673 0
-673 0
-431 674 -675 0
431 -674 -675 0
-431 -674 675 0
431 674 675 0
-675 0
-434 676 -677 0
434 -676 -677 0
-434 -676 677 0
434 676 677 0
-677 0
-437 678 -679 0
437 -678 -679 0
-437 -678 679 0
437 678 679 0
-679 0
-438 680 -681 0
438 -680 -681 0
-438 -680 681 0
438 680 681 0
-681 0
-439 682 -683 0
439 -682 -683 0
-439 -682 683 0
439 682 683 0
-683 0
-480 684 -685 0
480 -684 -685 0
-480 -684 685 0
480 684 685 0
-685 0
-483 686 -687 0
483 -686 -687 0
-483 -686 687 0
483 686 687 0
-687 0
-486 688 -689 0
486 -688 -689 0
-486 -688 689 0
486 688 689 0
-689 0
-487 690 -691 0
487 -690 -691 0
-487 -690 691 0
487 690 691 0
-691 0
-488 692 -693 0
488 -692 -693 0
-488 -692 693 0
488 692 693 0
-693 0
-489 694 -695 0
489 -694 -695 0
-489 -694 695 0
489 694 695 0
-695 0
-490 696 -697 0
490 -696 -697 0
-490 -696 697 0
490 696 697 0
-697 0
-491 698 -699 0
491 -698 -699 0
-491 -698 699 0
491 698 699 0
-699 0
-492 700 -701 0
492 -700 -701 0
-492 -700 701 0
492 700 701 0
-701 0
-493 702 -703 0
493 -702 -703 0
-493 -702 703 0
493 702 703 0
-703 0
-494 704 -705 0
494 -704 -705 0
-494 -704 705 0
494 704 705 0
-705 0
6 0
-10 0
-62 0
-162 0
-255 0
-265 0
-304 0
-347 0
-403 0
-432 0
-481 0
